solution status: optimal solution found
objective value:                                   26
one.thingy.devices[2].thingy.v8_y                   17 	(obj:0)
one.thingy.devices[2].thingy.v8_z                   17 	(obj:0)
one.ctrl_s[2].hole_y                               19 	(obj:0)
one.ctrl_s[2].hole_z                               14 	(obj:0)
one.thingy.devices[1].thingy.v7_y                   16 	(obj:0)
one.thingy.devices[1].thingy.v7_z                   18 	(obj:0)
one.thingy.devices[0].thingy.v7_y                   20 	(obj:0)
one.thingy.devices[0].thingy.v7_z                   18 	(obj:0)
one.thingy.devices[1].thingy.v9_y                   18 	(obj:0)
one.thingy.devices[1].thingy.v9_z                   18 	(obj:0)
one.thingy.devices[0].thingy.v9_y                   20 	(obj:0)
one.thingy.devices[0].thingy.v9_z                   16 	(obj:0)
one.ctrl_s[2].flush_y                              17 	(obj:0)
one.ctrl_s[2].flush_z                              16 	(obj:0)
one.thingy.devices[3].thingy.v7_y                   17 	(obj:0)
one.thingy.devices[3].thingy.v7_z                   18 	(obj:0)
one.thingy.devices[2].thingy.v7_y                   16 	(obj:0)
one.thingy.devices[2].thingy.v7_z                   17 	(obj:0)
one.thingy.devices[2].thingy.v9_y                   20 	(obj:0)
one.thingy.devices[2].thingy.v9_z                   19 	(obj:0)
one.thingy.devices[1].thingy.v8_y                   15 	(obj:0)
one.thingy.devices[1].thingy.v8_z                   17 	(obj:0)
one.thingy.devices[3].thingy.v9_y                   21 	(obj:0)
one.thingy.devices[3].thingy.v9_z                   20 	(obj:0)
one.thingy.devices[3].thingy.v8_y                   15 	(obj:0)
one.thingy.devices[3].thingy.v8_z                   21 	(obj:0)
one.thingy.devices[0].thingy.v8_y                   20 	(obj:0)
one.thingy.devices[0].thingy.v8_z                   17 	(obj:0)
x33                                                 2 	(obj:1)
x34                                                 2 	(obj:1)
x43                                                 2 	(obj:1)
x49                                                 2 	(obj:1)
x50                                                 2 	(obj:1)
x56                                                 2 	(obj:1)
x67                                                 2 	(obj:1)
x72                                                 2 	(obj:1)
x73                                                 1 	(obj:1)
x77                                                 1 	(obj:1)
x78                                                 1 	(obj:1)
x84                                                 1 	(obj:1)
x86                                                 2 	(obj:1)
x87                                                 1 	(obj:1)
x93                                                 2 	(obj:1)
x96                                                 1 	(obj:1)
